c WARNING: for repeatability, setting FPU to use double precision
d VARIABLES            201474       
d CONSTRAINTS          921954       
c ============================[ Problem Statistics ]=============================
c |                                                                             |
c |  Number of variables:        201474                                         |
c |  Number of clauses:          921954                                         |
c |  Parse time:                   0.16 s                                       |
c |                                                                             |
c ============================[ Search Statistics ]==============================
c | Conflicts |          ORIGINAL         |          LEARNT          | Progress |
c |           |    Vars  Clauses Literals |    Limit  Clauses Lit/Cl |          |
c ===============================================================================
c |       100 |  177925   854866  2065126 |   313450      100     72 | 11.688 % |
c |       250 |  177925   854866  2065126 |   344795      250     75 | 11.688 % |
c |       475 |  177925   854866  2065126 |   379275      475     70 | 11.688 % |
c |       812 |  177925   854866  2065126 |   417203      812     76 | 11.688 % |
c |      1318 |  177925   854866  2065126 |   458923     1318     75 | 11.688 % |
c |      2077 |  177925   854866  2065126 |   504815     2077     69 | 11.688 % |
c |      3216 |  177925   854866  2065126 |   555297     3216     81 | 11.688 % |
c |      4924 |  177925   854866  2065126 |   610827     4924     75 | 11.688 % |
c |      7486 |  177925   854866  2065126 |   671909     7486     69 | 11.688 % |
c |     11330 |  177925   854866  2065126 |   739100    11330     72 | 11.688 % |
c |     17096 |  177925   854866  2065126 |   813010    17096     69 | 11.688 % |
c |     25745 |  177925   854866  2065126 |   894311    25745     69 | 11.688 % |
c |     38719 |  177925   854866  2065126 |   983743    38719     66 | 11.688 % |
c |     58180 |  177925   854866  2065126 |  1082117    58180     62 | 11.688 % |
c |     87372 |  177925   854866  2065126 |  1190329    87372     55 | 11.688 % |
c ===============================================================================
c restarts              : 254
c conflicts             : 89565          (2513 /sec)
c decisions             : 174786         (0.00 % random) (4903 /sec)
c propagations          : 145409941      (4079252 /sec)
c conflict literals     : 4872897        (49.14 % deleted)
d RESTARTS             254
d FAILURES             89565        
d NODES                174786       
d BACKTRACKS           174786       
d PROPAGATIONS         145409941    
d NOGOODSIZE           54.41 
d MEMORY               140.00 
d TIME                 35.6462 

s UNSATISFIABLE
